Iteration #1
Total number of hole bits is 224
Sketch file is blue_increase_equivalent_4_canonicalizer_equivalent_0_pred_raw_stateless_alu_arith_4_2_codegen_iteration_1.sk
Synthesis succeeded with 2 bits, proceeding to verification.
Verification failed.
Use returned counterexamples {'pkt_1': 0, 'pkt_0': 11} {'state_group_1_state_0': 0, 'state_group_0_state_0': 0}
updated constant array {' 3', ' 2', '11', ' 10', ' 1', '0'}
Iteration #2
Total number of hole bits is 224
Sketch file is blue_increase_equivalent_4_canonicalizer_equivalent_0_pred_raw_stateless_alu_arith_4_2_codegen_iteration_2.sk
Synthesis succeeded with 2 bits, proceeding to verification.
Verification failed.
Use returned counterexamples {'pkt_1': 0, 'pkt_0': 11} {'state_group_1_state_0': 1, 'state_group_0_state_0': 2}
updated constant array {'1', ' 3', ' 2', '11', ' 10', ' 1', '0', '2'}
Iteration #3
Total number of hole bits is 224
Sketch file is blue_increase_equivalent_4_canonicalizer_equivalent_0_pred_raw_stateless_alu_arith_4_2_codegen_iteration_3.sk
Synthesis succeeded with 2 bits, proceeding to verification.
Verification failed.
Use returned counterexamples {'pkt_1': 0, 'pkt_0': 10} {'state_group_1_state_0': 1, 'state_group_0_state_0': 0}
updated constant array {'1', ' 3', '10', ' 2', '11', ' 10', ' 1', '0', '2'}
Iteration #4
Total number of hole bits is 248
Sketch file is blue_increase_equivalent_4_canonicalizer_equivalent_0_pred_raw_stateless_alu_arith_4_2_codegen_iteration_4.sk
Synthesis succeeded with 2 bits, proceeding to verification.
Verification failed.
Use returned counterexamples {'pkt_1': 0, 'pkt_0': 12} {'state_group_1_state_0': 1, 'state_group_0_state_0': 0}
updated constant array {'1', '12', ' 3', '10', ' 2', '11', ' 10', ' 1', '0', '2'}
Iteration #5
Total number of hole bits is 248
Sketch file is blue_increase_equivalent_4_canonicalizer_equivalent_0_pred_raw_stateless_alu_arith_4_2_codegen_iteration_5.sk
Synthesis succeeded with 2 bits, proceeding to verification.
Verification failed.
Use returned counterexamples {'pkt_1': 0, 'pkt_0': 12} {'state_group_1_state_0': 0, 'state_group_0_state_0': 0}
updated constant array {'1', '12', ' 3', '10', ' 2', '11', ' 10', ' 1', '0', '2'}
Iteration #6
Total number of hole bits is 248
Sketch file is blue_increase_equivalent_4_canonicalizer_equivalent_0_pred_raw_stateless_alu_arith_4_2_codegen_iteration_6.sk
Synthesis succeeded with 2 bits, proceeding to verification.
Verification failed.
Use returned counterexamples {'pkt_1': 1, 'pkt_0': 11} {'state_group_1_state_0': 0, 'state_group_0_state_0': 0}
updated constant array {'1', '12', ' 3', '10', ' 2', '11', ' 10', ' 1', '0', '2'}
Iteration #7
Total number of hole bits is 248
Sketch file is blue_increase_equivalent_4_canonicalizer_equivalent_0_pred_raw_stateless_alu_arith_4_2_codegen_iteration_7.sk
Synthesis succeeded with 2 bits, proceeding to verification.
Verification failed.
Use returned counterexamples {'pkt_1': 0, 'pkt_0': 11} {'state_group_1_state_0': 0, 'state_group_0_state_0': 1}
updated constant array {'1', '12', ' 3', '10', ' 2', '11', ' 10', ' 1', '0', '2'}
Iteration #8
Total number of hole bits is 248
Sketch file is blue_increase_equivalent_4_canonicalizer_equivalent_0_pred_raw_stateless_alu_arith_4_2_codegen_iteration_8.sk
Synthesis succeeded with 2 bits, proceeding to verification.
Verification failed.
Use returned counterexamples {'pkt_1': 0, 'pkt_0': 11} {'state_group_1_state_0': 1, 'state_group_0_state_0': 1}
updated constant array {'1', '12', ' 3', '10', ' 2', '11', ' 10', ' 1', '0', '2'}
Iteration #9
Total number of hole bits is 248
Sketch file is blue_increase_equivalent_4_canonicalizer_equivalent_0_pred_raw_stateless_alu_arith_4_2_codegen_iteration_9.sk
Synthesis succeeded with 2 bits, proceeding to verification.
Verification failed.
Use returned counterexamples {'pkt_1': 0, 'pkt_0': 14} {'state_group_1_state_0': 4, 'state_group_0_state_0': 0}
updated constant array {'1', '12', ' 3', '10', ' 2', '11', ' 10', ' 1', '0', '4', '14', '2'}
Iteration #10
Total number of hole bits is 248
Sketch file is blue_increase_equivalent_4_canonicalizer_equivalent_0_pred_raw_stateless_alu_arith_4_2_codegen_iteration_10.sk
Synthesis succeeded with 2 bits, proceeding to verification.
Verification failed.
Use returned counterexamples {'pkt_1': 0, 'pkt_0': 10} {'state_group_1_state_0': 0, 'state_group_0_state_0': 11}
updated constant array {'1', '12', ' 3', '10', ' 2', '11', ' 10', ' 1', '0', '4', '14', '2'}
Iteration #11
Total number of hole bits is 248
Sketch file is blue_increase_equivalent_4_canonicalizer_equivalent_0_pred_raw_stateless_alu_arith_4_2_codegen_iteration_11.sk
Synthesis succeeded with 2 bits, proceeding to verification.
Verification failed.
Use returned counterexamples {'pkt_1': 0, 'pkt_0': 1} {'state_group_1_state_0': 11, 'state_group_0_state_0': 0}
updated constant array {'1', '12', ' 3', '10', ' 2', '11', ' 10', ' 1', '0', '4', '14', '2'}
Iteration #12
Total number of hole bits is 248
Sketch file is blue_increase_equivalent_4_canonicalizer_equivalent_0_pred_raw_stateless_alu_arith_4_2_codegen_iteration_12.sk
Synthesis succeeded with 2 bits, proceeding to verification.
blue_increase_equivalent_4_canonicalizer_equivalent_0_pred_raw_stateless_alu_arith_4_2_verify_iter_12.sk passed syntax check. 
Failed to generate counterexamples, z3 returned unsat
Compilation succeeded. Hole value assignments are following:
int blue_increase_equivalent_4_canonicalizer_equivalent_0_pred_raw_stateless_alu_arith_4_2_output_mux_phv_0_0_ctrl = 3
int blue_increase_equivalent_4_canonicalizer_equivalent_0_pred_raw_stateless_alu_arith_4_2_output_mux_phv_0_1_ctrl = 2
int blue_increase_equivalent_4_canonicalizer_equivalent_0_pred_raw_stateless_alu_arith_4_2_output_mux_phv_1_0_ctrl = 1
int blue_increase_equivalent_4_canonicalizer_equivalent_0_pred_raw_stateless_alu_arith_4_2_output_mux_phv_1_1_ctrl = 3
int blue_increase_equivalent_4_canonicalizer_equivalent_0_pred_raw_stateless_alu_arith_4_2_output_mux_phv_2_0_ctrl = 2
int blue_increase_equivalent_4_canonicalizer_equivalent_0_pred_raw_stateless_alu_arith_4_2_output_mux_phv_2_1_ctrl = 2
int blue_increase_equivalent_4_canonicalizer_equivalent_0_pred_raw_stateless_alu_arith_4_2_output_mux_phv_3_0_ctrl = 2
int blue_increase_equivalent_4_canonicalizer_equivalent_0_pred_raw_stateless_alu_arith_4_2_output_mux_phv_3_1_ctrl = 2
int blue_increase_equivalent_4_canonicalizer_equivalent_0_pred_raw_stateless_alu_arith_4_2_salu_config_0_0 = 0
int blue_increase_equivalent_4_canonicalizer_equivalent_0_pred_raw_stateless_alu_arith_4_2_salu_config_0_1 = 0
int blue_increase_equivalent_4_canonicalizer_equivalent_0_pred_raw_stateless_alu_arith_4_2_salu_config_1_0 = 0
int blue_increase_equivalent_4_canonicalizer_equivalent_0_pred_raw_stateless_alu_arith_4_2_salu_config_1_1 = 1
int blue_increase_equivalent_4_canonicalizer_equivalent_0_pred_raw_stateless_alu_arith_4_2_salu_config_2_0 = 0
int blue_increase_equivalent_4_canonicalizer_equivalent_0_pred_raw_stateless_alu_arith_4_2_salu_config_2_1 = 0
int blue_increase_equivalent_4_canonicalizer_equivalent_0_pred_raw_stateless_alu_arith_4_2_salu_config_3_0 = 1
int blue_increase_equivalent_4_canonicalizer_equivalent_0_pred_raw_stateless_alu_arith_4_2_salu_config_3_1 = 0
int blue_increase_equivalent_4_canonicalizer_equivalent_0_pred_raw_stateless_alu_arith_4_2_stateful_alu_0_0_Mux3_0_global = 0
int blue_increase_equivalent_4_canonicalizer_equivalent_0_pred_raw_stateless_alu_arith_4_2_stateful_alu_0_0_Mux3_1_global = 2
int blue_increase_equivalent_4_canonicalizer_equivalent_0_pred_raw_stateless_alu_arith_4_2_stateful_alu_0_0_Opt_0_global = 0
int blue_increase_equivalent_4_canonicalizer_equivalent_0_pred_raw_stateless_alu_arith_4_2_stateful_alu_0_0_Opt_1_global = 0
int blue_increase_equivalent_4_canonicalizer_equivalent_0_pred_raw_stateless_alu_arith_4_2_stateful_alu_0_0_const_0_global = 1
int blue_increase_equivalent_4_canonicalizer_equivalent_0_pred_raw_stateless_alu_arith_4_2_stateful_alu_0_0_const_1_global = 3
int blue_increase_equivalent_4_canonicalizer_equivalent_0_pred_raw_stateless_alu_arith_4_2_stateful_alu_0_0_output_mux_global = 0
int blue_increase_equivalent_4_canonicalizer_equivalent_0_pred_raw_stateless_alu_arith_4_2_stateful_alu_0_0_rel_op_0_global = 2
int blue_increase_equivalent_4_canonicalizer_equivalent_0_pred_raw_stateless_alu_arith_4_2_stateful_alu_0_1_Mux3_0_global = 0
int blue_increase_equivalent_4_canonicalizer_equivalent_0_pred_raw_stateless_alu_arith_4_2_stateful_alu_0_1_Mux3_1_global = 0
int blue_increase_equivalent_4_canonicalizer_equivalent_0_pred_raw_stateless_alu_arith_4_2_stateful_alu_0_1_Opt_0_global = 0
int blue_increase_equivalent_4_canonicalizer_equivalent_0_pred_raw_stateless_alu_arith_4_2_stateful_alu_0_1_Opt_1_global = 0
int blue_increase_equivalent_4_canonicalizer_equivalent_0_pred_raw_stateless_alu_arith_4_2_stateful_alu_0_1_const_0_global = 0
int blue_increase_equivalent_4_canonicalizer_equivalent_0_pred_raw_stateless_alu_arith_4_2_stateful_alu_0_1_const_1_global = 4
int blue_increase_equivalent_4_canonicalizer_equivalent_0_pred_raw_stateless_alu_arith_4_2_stateful_alu_0_1_output_mux_global = 1
int blue_increase_equivalent_4_canonicalizer_equivalent_0_pred_raw_stateless_alu_arith_4_2_stateful_alu_0_1_rel_op_0_global = 0
int blue_increase_equivalent_4_canonicalizer_equivalent_0_pred_raw_stateless_alu_arith_4_2_stateful_alu_1_0_Mux3_0_global = 2
int blue_increase_equivalent_4_canonicalizer_equivalent_0_pred_raw_stateless_alu_arith_4_2_stateful_alu_1_0_Mux3_1_global = 0
int blue_increase_equivalent_4_canonicalizer_equivalent_0_pred_raw_stateless_alu_arith_4_2_stateful_alu_1_0_Opt_0_global = 0
int blue_increase_equivalent_4_canonicalizer_equivalent_0_pred_raw_stateless_alu_arith_4_2_stateful_alu_1_0_Opt_1_global = 0
int blue_increase_equivalent_4_canonicalizer_equivalent_0_pred_raw_stateless_alu_arith_4_2_stateful_alu_1_0_const_0_global = 0
int blue_increase_equivalent_4_canonicalizer_equivalent_0_pred_raw_stateless_alu_arith_4_2_stateful_alu_1_0_const_1_global = 6
int blue_increase_equivalent_4_canonicalizer_equivalent_0_pred_raw_stateless_alu_arith_4_2_stateful_alu_1_0_output_mux_global = 1
int blue_increase_equivalent_4_canonicalizer_equivalent_0_pred_raw_stateless_alu_arith_4_2_stateful_alu_1_0_rel_op_0_global = 2
int blue_increase_equivalent_4_canonicalizer_equivalent_0_pred_raw_stateless_alu_arith_4_2_stateful_alu_1_1_Mux3_0_global = 0
int blue_increase_equivalent_4_canonicalizer_equivalent_0_pred_raw_stateless_alu_arith_4_2_stateful_alu_1_1_Mux3_1_global = 1
int blue_increase_equivalent_4_canonicalizer_equivalent_0_pred_raw_stateless_alu_arith_4_2_stateful_alu_1_1_Opt_0_global = 0
int blue_increase_equivalent_4_canonicalizer_equivalent_0_pred_raw_stateless_alu_arith_4_2_stateful_alu_1_1_Opt_1_global = 1
int blue_increase_equivalent_4_canonicalizer_equivalent_0_pred_raw_stateless_alu_arith_4_2_stateful_alu_1_1_const_0_global = 5
int blue_increase_equivalent_4_canonicalizer_equivalent_0_pred_raw_stateless_alu_arith_4_2_stateful_alu_1_1_const_1_global = 8
int blue_increase_equivalent_4_canonicalizer_equivalent_0_pred_raw_stateless_alu_arith_4_2_stateful_alu_1_1_output_mux_global = 1
int blue_increase_equivalent_4_canonicalizer_equivalent_0_pred_raw_stateless_alu_arith_4_2_stateful_alu_1_1_rel_op_0_global = 1
int blue_increase_equivalent_4_canonicalizer_equivalent_0_pred_raw_stateless_alu_arith_4_2_stateful_alu_2_0_Mux3_0_global = 2
int blue_increase_equivalent_4_canonicalizer_equivalent_0_pred_raw_stateless_alu_arith_4_2_stateful_alu_2_0_Mux3_1_global = 3
int blue_increase_equivalent_4_canonicalizer_equivalent_0_pred_raw_stateless_alu_arith_4_2_stateful_alu_2_0_Opt_0_global = 0
int blue_increase_equivalent_4_canonicalizer_equivalent_0_pred_raw_stateless_alu_arith_4_2_stateful_alu_2_0_Opt_1_global = 0
int blue_increase_equivalent_4_canonicalizer_equivalent_0_pred_raw_stateless_alu_arith_4_2_stateful_alu_2_0_const_0_global = 10
int blue_increase_equivalent_4_canonicalizer_equivalent_0_pred_raw_stateless_alu_arith_4_2_stateful_alu_2_0_const_1_global = 0
int blue_increase_equivalent_4_canonicalizer_equivalent_0_pred_raw_stateless_alu_arith_4_2_stateful_alu_2_0_output_mux_global = 0
int blue_increase_equivalent_4_canonicalizer_equivalent_0_pred_raw_stateless_alu_arith_4_2_stateful_alu_2_0_rel_op_0_global = 2
int blue_increase_equivalent_4_canonicalizer_equivalent_0_pred_raw_stateless_alu_arith_4_2_stateful_alu_2_1_Mux3_0_global = 3
int blue_increase_equivalent_4_canonicalizer_equivalent_0_pred_raw_stateless_alu_arith_4_2_stateful_alu_2_1_Mux3_1_global = 2
int blue_increase_equivalent_4_canonicalizer_equivalent_0_pred_raw_stateless_alu_arith_4_2_stateful_alu_2_1_Opt_0_global = 0
int blue_increase_equivalent_4_canonicalizer_equivalent_0_pred_raw_stateless_alu_arith_4_2_stateful_alu_2_1_Opt_1_global = 0
int blue_increase_equivalent_4_canonicalizer_equivalent_0_pred_raw_stateless_alu_arith_4_2_stateful_alu_2_1_const_0_global = 1
int blue_increase_equivalent_4_canonicalizer_equivalent_0_pred_raw_stateless_alu_arith_4_2_stateful_alu_2_1_const_1_global = 0
int blue_increase_equivalent_4_canonicalizer_equivalent_0_pred_raw_stateless_alu_arith_4_2_stateful_alu_2_1_output_mux_global = 0
int blue_increase_equivalent_4_canonicalizer_equivalent_0_pred_raw_stateless_alu_arith_4_2_stateful_alu_2_1_rel_op_0_global = 3
int blue_increase_equivalent_4_canonicalizer_equivalent_0_pred_raw_stateless_alu_arith_4_2_stateful_alu_3_0_Mux3_0_global = 1
int blue_increase_equivalent_4_canonicalizer_equivalent_0_pred_raw_stateless_alu_arith_4_2_stateful_alu_3_0_Mux3_1_global = 3
int blue_increase_equivalent_4_canonicalizer_equivalent_0_pred_raw_stateless_alu_arith_4_2_stateful_alu_3_0_Opt_0_global = 1
int blue_increase_equivalent_4_canonicalizer_equivalent_0_pred_raw_stateless_alu_arith_4_2_stateful_alu_3_0_Opt_1_global = 0
int blue_increase_equivalent_4_canonicalizer_equivalent_0_pred_raw_stateless_alu_arith_4_2_stateful_alu_3_0_const_0_global = 8
int blue_increase_equivalent_4_canonicalizer_equivalent_0_pred_raw_stateless_alu_arith_4_2_stateful_alu_3_0_const_1_global = 0
int blue_increase_equivalent_4_canonicalizer_equivalent_0_pred_raw_stateless_alu_arith_4_2_stateful_alu_3_0_output_mux_global = 0
int blue_increase_equivalent_4_canonicalizer_equivalent_0_pred_raw_stateless_alu_arith_4_2_stateful_alu_3_0_rel_op_0_global = 2
int blue_increase_equivalent_4_canonicalizer_equivalent_0_pred_raw_stateless_alu_arith_4_2_stateful_alu_3_1_Mux3_0_global = 2
int blue_increase_equivalent_4_canonicalizer_equivalent_0_pred_raw_stateless_alu_arith_4_2_stateful_alu_3_1_Mux3_1_global = 3
int blue_increase_equivalent_4_canonicalizer_equivalent_0_pred_raw_stateless_alu_arith_4_2_stateful_alu_3_1_Opt_0_global = 0
int blue_increase_equivalent_4_canonicalizer_equivalent_0_pred_raw_stateless_alu_arith_4_2_stateful_alu_3_1_Opt_1_global = 0
int blue_increase_equivalent_4_canonicalizer_equivalent_0_pred_raw_stateless_alu_arith_4_2_stateful_alu_3_1_const_0_global = 0
int blue_increase_equivalent_4_canonicalizer_equivalent_0_pred_raw_stateless_alu_arith_4_2_stateful_alu_3_1_const_1_global = 2
int blue_increase_equivalent_4_canonicalizer_equivalent_0_pred_raw_stateless_alu_arith_4_2_stateful_alu_3_1_output_mux_global = 0
int blue_increase_equivalent_4_canonicalizer_equivalent_0_pred_raw_stateless_alu_arith_4_2_stateful_alu_3_1_rel_op_0_global = 0
int blue_increase_equivalent_4_canonicalizer_equivalent_0_pred_raw_stateless_alu_arith_4_2_stateful_operand_mux_0_0_0_ctrl = 1
int blue_increase_equivalent_4_canonicalizer_equivalent_0_pred_raw_stateless_alu_arith_4_2_stateful_operand_mux_0_0_1_ctrl = 1
int blue_increase_equivalent_4_canonicalizer_equivalent_0_pred_raw_stateless_alu_arith_4_2_stateful_operand_mux_0_1_0_ctrl = 1
int blue_increase_equivalent_4_canonicalizer_equivalent_0_pred_raw_stateless_alu_arith_4_2_stateful_operand_mux_0_1_1_ctrl = 0
int blue_increase_equivalent_4_canonicalizer_equivalent_0_pred_raw_stateless_alu_arith_4_2_stateful_operand_mux_1_0_0_ctrl = 0
int blue_increase_equivalent_4_canonicalizer_equivalent_0_pred_raw_stateless_alu_arith_4_2_stateful_operand_mux_1_0_1_ctrl = 0
int blue_increase_equivalent_4_canonicalizer_equivalent_0_pred_raw_stateless_alu_arith_4_2_stateful_operand_mux_1_1_0_ctrl = 0
int blue_increase_equivalent_4_canonicalizer_equivalent_0_pred_raw_stateless_alu_arith_4_2_stateful_operand_mux_1_1_1_ctrl = 1
int blue_increase_equivalent_4_canonicalizer_equivalent_0_pred_raw_stateless_alu_arith_4_2_stateful_operand_mux_2_0_0_ctrl = 1
int blue_increase_equivalent_4_canonicalizer_equivalent_0_pred_raw_stateless_alu_arith_4_2_stateful_operand_mux_2_0_1_ctrl = 0
int blue_increase_equivalent_4_canonicalizer_equivalent_0_pred_raw_stateless_alu_arith_4_2_stateful_operand_mux_2_1_0_ctrl = 0
int blue_increase_equivalent_4_canonicalizer_equivalent_0_pred_raw_stateless_alu_arith_4_2_stateful_operand_mux_2_1_1_ctrl = 0
int blue_increase_equivalent_4_canonicalizer_equivalent_0_pred_raw_stateless_alu_arith_4_2_stateful_operand_mux_3_0_0_ctrl = 0
int blue_increase_equivalent_4_canonicalizer_equivalent_0_pred_raw_stateless_alu_arith_4_2_stateful_operand_mux_3_0_1_ctrl = 1
int blue_increase_equivalent_4_canonicalizer_equivalent_0_pred_raw_stateless_alu_arith_4_2_stateful_operand_mux_3_1_0_ctrl = 0
int blue_increase_equivalent_4_canonicalizer_equivalent_0_pred_raw_stateless_alu_arith_4_2_stateful_operand_mux_3_1_1_ctrl = 0
int blue_increase_equivalent_4_canonicalizer_equivalent_0_pred_raw_stateless_alu_arith_4_2_stateless_alu_0_0_immediate = 6
int blue_increase_equivalent_4_canonicalizer_equivalent_0_pred_raw_stateless_alu_arith_4_2_stateless_alu_0_0_mux1_ctrl = 0
int blue_increase_equivalent_4_canonicalizer_equivalent_0_pred_raw_stateless_alu_arith_4_2_stateless_alu_0_0_mux2_ctrl = 0
int blue_increase_equivalent_4_canonicalizer_equivalent_0_pred_raw_stateless_alu_arith_4_2_stateless_alu_0_0_opcode = 4
int blue_increase_equivalent_4_canonicalizer_equivalent_0_pred_raw_stateless_alu_arith_4_2_stateless_alu_0_1_immediate = 8
int blue_increase_equivalent_4_canonicalizer_equivalent_0_pred_raw_stateless_alu_arith_4_2_stateless_alu_0_1_mux1_ctrl = 0
int blue_increase_equivalent_4_canonicalizer_equivalent_0_pred_raw_stateless_alu_arith_4_2_stateless_alu_0_1_mux2_ctrl = 1
int blue_increase_equivalent_4_canonicalizer_equivalent_0_pred_raw_stateless_alu_arith_4_2_stateless_alu_0_1_opcode = 2
int blue_increase_equivalent_4_canonicalizer_equivalent_0_pred_raw_stateless_alu_arith_4_2_stateless_alu_1_0_immediate = 8
int blue_increase_equivalent_4_canonicalizer_equivalent_0_pred_raw_stateless_alu_arith_4_2_stateless_alu_1_0_mux1_ctrl = 0
int blue_increase_equivalent_4_canonicalizer_equivalent_0_pred_raw_stateless_alu_arith_4_2_stateless_alu_1_0_mux2_ctrl = 1
int blue_increase_equivalent_4_canonicalizer_equivalent_0_pred_raw_stateless_alu_arith_4_2_stateless_alu_1_0_opcode = 6
int blue_increase_equivalent_4_canonicalizer_equivalent_0_pred_raw_stateless_alu_arith_4_2_stateless_alu_1_1_immediate = 8
int blue_increase_equivalent_4_canonicalizer_equivalent_0_pred_raw_stateless_alu_arith_4_2_stateless_alu_1_1_mux1_ctrl = 0
int blue_increase_equivalent_4_canonicalizer_equivalent_0_pred_raw_stateless_alu_arith_4_2_stateless_alu_1_1_mux2_ctrl = 0
int blue_increase_equivalent_4_canonicalizer_equivalent_0_pred_raw_stateless_alu_arith_4_2_stateless_alu_1_1_opcode = 4
int blue_increase_equivalent_4_canonicalizer_equivalent_0_pred_raw_stateless_alu_arith_4_2_stateless_alu_2_0_immediate = 5
int blue_increase_equivalent_4_canonicalizer_equivalent_0_pred_raw_stateless_alu_arith_4_2_stateless_alu_2_0_mux1_ctrl = 1
int blue_increase_equivalent_4_canonicalizer_equivalent_0_pred_raw_stateless_alu_arith_4_2_stateless_alu_2_0_mux2_ctrl = 0
int blue_increase_equivalent_4_canonicalizer_equivalent_0_pred_raw_stateless_alu_arith_4_2_stateless_alu_2_0_opcode = 2
int blue_increase_equivalent_4_canonicalizer_equivalent_0_pred_raw_stateless_alu_arith_4_2_stateless_alu_2_1_immediate = 8
int blue_increase_equivalent_4_canonicalizer_equivalent_0_pred_raw_stateless_alu_arith_4_2_stateless_alu_2_1_mux1_ctrl = 0
int blue_increase_equivalent_4_canonicalizer_equivalent_0_pred_raw_stateless_alu_arith_4_2_stateless_alu_2_1_mux2_ctrl = 1
int blue_increase_equivalent_4_canonicalizer_equivalent_0_pred_raw_stateless_alu_arith_4_2_stateless_alu_2_1_opcode = 3
int blue_increase_equivalent_4_canonicalizer_equivalent_0_pred_raw_stateless_alu_arith_4_2_stateless_alu_3_0_immediate = 7
int blue_increase_equivalent_4_canonicalizer_equivalent_0_pred_raw_stateless_alu_arith_4_2_stateless_alu_3_0_mux1_ctrl = 0
int blue_increase_equivalent_4_canonicalizer_equivalent_0_pred_raw_stateless_alu_arith_4_2_stateless_alu_3_0_mux2_ctrl = 0
int blue_increase_equivalent_4_canonicalizer_equivalent_0_pred_raw_stateless_alu_arith_4_2_stateless_alu_3_0_opcode = 4
int blue_increase_equivalent_4_canonicalizer_equivalent_0_pred_raw_stateless_alu_arith_4_2_stateless_alu_3_1_immediate = 5
int blue_increase_equivalent_4_canonicalizer_equivalent_0_pred_raw_stateless_alu_arith_4_2_stateless_alu_3_1_mux1_ctrl = 0
int blue_increase_equivalent_4_canonicalizer_equivalent_0_pred_raw_stateless_alu_arith_4_2_stateless_alu_3_1_mux2_ctrl = 0
int blue_increase_equivalent_4_canonicalizer_equivalent_0_pred_raw_stateless_alu_arith_4_2_stateless_alu_3_1_opcode = 4
Output left in blue_increase_equivalent_4_canonicalizer_equivalent_0_pred_raw_stateless_alu_arith_4_2.success